letting n =  10
letting blocks =  [[1, 1], [1, 3], [1, 7], [1, 9], [2, 2], [2, 3], [3, 1], [3, 7], [3, 8], [4, 6], [4, 9], [4, 10], [5, 2], [5, 4], [5, 7], [5, 8], [6, 1], [6, 9], [6, 10], [7, 3], [7, 4], [7, 7], [8, 1], [8, 10], [9, 1], [9, 3], [9, 6], [9, 10], [10, 1], [10, 2]]
